
Gurobi 6.5.2 (linux64) logging started Tue Mar 21 11:16:32 2017


Gurobi 6.5.2 (linux64) logging started Tue Mar 21 11:16:32 2017

Optimize a model with 201 rows, 3565 columns and 7133 nonzeros
Coefficient statistics:
  Matrix range    [1e+00, 2e+00]
  Objective range [1e+00, 1e+02]
  Bounds range    [1e+00, 1e+00]
  RHS range       [1e+00, 1e+00]
Presolve removed 100 rows and 98 columns
Presolve time: 0.01s
Presolved: 101 rows, 3467 columns, 6935 nonzeros
Variable types: 0 continuous, 3467 integer (3467 binary)

Root relaxation: objective 9.595000e+02, 147 iterations, 0.00 seconds

    Nodes    |    Current Node    |     Objective Bounds      |     Work
 Expl Unexpl |  Obj  Depth IntInf | Incumbent    BestBd   Gap | It/Node Time

     0     0  959.50000    0   20          -  959.50000      -     -    0s
     0     0  964.00000    0   24          -  964.00000      -     -    0s
     0     0  965.00000    0   14          -  965.00000      -     -    0s
     0     0  965.00000    0    4          -  965.00000      -     -    0s
     0     0  965.03704    0   17          -  965.03704      -     -    0s
     0     0  965.03704    0   17          -  965.03704      -     -    0s
     0     2  965.03704    0   17          -  965.03704      -     -    0s
* 3301  1822             219    1096.0000000  974.42857  11.1%   6.4    4s
* 3304  1762             222    1095.0000000  974.42857  11.0%   6.4    4s
  3586  1854  999.50000   43    6 1095.00000  975.00000  11.0%   6.3    5s
H 5044  2025                    1043.0000000  975.00000  6.52%   5.9    6s
* 5304   353              33     990.0000000  977.00000  1.31%   5.8    6s

Cutting planes:
  Gomory: 10
  Flow cover: 2
  Zero half: 19
  Lazy constraints: 519

Explored 5752 nodes (34576 simplex iterations) in 7.22 seconds
Thread count was 4 (of 4 available processors)

Optimal solution found (tolerance 1.00e-04)
Best objective 9.900000000000e+02, best bound 9.900000000000e+02, gap 0.0%
